molecule hooh {
   symmetry c1
   H
   O 1 0.946347
   O 2 1.397780 1  107.243777
   H 3 0.946347 2  107.243777   1 0.0
}

set {
   normal_modes_write true
   basis dzp
   opt_type irc
   geom_maxiter 50
}

frequencies('scf')
optimize('scf')
